words_hard_train/2245.qaiger
aag 83 15 0 1 68
2
4
8
12
16
20
24
28
46
50
72
86
104
118
148
167
6 3 5
10 6 9
14 10 13
18 14 17
22 19 20
26 23 24
30 27 29
32 22 25
34 30 33
36 15 16
38 37 19
40 34 39
42 18 25
44 43 20
48 45 46
52 49 51
54 47 20
56 54 43
58 52 57
60 19 24
62 61 43
64 58 63
66 41 65
68 5 20
70 69 7
74 73 9
76 75 21
78 70 77
80 9 20
82 81 4
84 82 73
88 87 2
90 85 89
92 78 91
94 92 8
96 93 9
98 13 20
100 12 21
102 99 101
106 102 105
108 97 106
110 95 109
112 11 12
114 15 20
116 115 16
120 117 119
122 114 17
124 120 123
126 113 125
128 111 127
130 129 15
132 124 12
134 130 133
136 35 38
138 135 137
140 66 139
142 59 62
144 141 143
146 145 46
150 55 149
152 150 42
154 147 153
156 144 47
158 43 148
160 157 159
162 154 161
164 146 152
166 163 165
i0 2 y1[0]
i1 2 y1[1]
i2 2 y1[2]
i3 2 y1[3]
i4 2 y1[4]
i5 2 y1[7]
i6 2 y1[5]
i7 1 x1[5]
i8 2 y1[6]
i9 1 x1[6]
i10 1 x1[2]
i11 1 x1[1]
i12 1 x1[3]
i13 1 x1[4]
i14 1 x1[7]
o0 bv[0]
c
simplified
  <
    or
      abs
        2 y1
      1 x1
    add
      2 y1
      2 y1
