words_hard_train/2245.qaiger.qdimacs
p cnf 83 205
a 36 74 43 14 52 25 59 0
e 1 2 3 4 5 6 7 8 9 10 11 12 13 15 16 17 18 19 20 21 22 23 24 26 27 28 29 30 31 32 33 34 35 37 38 39 40 41 42 44 45 46 47 48 49 50 51 53 54 55 56 57 58 60 61 62 63 64 65 66 67 68 69 70 71 72 73 75 76 77 78 79 80 81 82 83 0
1 2 3 0
-1 -3 0
-2 -3 0
-3 4 5 0
3 -5 0
-4 -5 0
-5 6 7 0
5 -7 0
-6 -7 0
-7 8 9 0
7 -9 0
-8 -9 0
9 -10 11 0
-9 -11 0
10 -11 0
11 -12 13 0
-11 -13 0
12 -13 0
13 14 15 0
-13 -15 0
-14 -15 0
-11 12 16 0
11 -16 0
-12 -16 0
-15 16 17 0
15 -17 0
-16 -17 0
7 -8 18 0
-7 -18 0
8 -18 0
18 9 19 0
-18 -19 0
-9 -19 0
-17 19 20 0
17 -20 0
-19 -20 0
-9 12 21 0
9 -21 0
-12 -21 0
21 -10 22 0
-21 -22 0
10 -22 0
22 -23 24 0
-22 -24 0
23 -24 0
24 25 26 0
-24 -26 0
-25 -26 0
23 -10 27 0
-23 -27 0
10 -27 0
-27 21 28 0
27 -28 0
-21 -28 0
-26 28 29 0
26 -29 0
-28 -29 0
9 -12 30 0
-9 -30 0
12 -30 0
30 21 31 0
-30 -31 0
-21 -31 0
-29 31 32 0
29 -32 0
-31 -32 0
20 32 33 0
-20 -33 0
-32 -33 0
2 -10 34 0
-2 -34 0
10 -34 0
34 3 35 0
-34 -35 0
-3 -35 0
36 4 37 0
-36 -37 0
-4 -37 0
37 10 38 0
-37 -38 0
-10 -38 0
-35 38 39 0
35 -39 0
-38 -39 0
4 -10 40 0
-4 -40 0
10 -40 0
40 -2 41 0
-40 -41 0
2 -41 0
-41 36 42 0
41 -42 0
-36 -42 0
43 -1 44 0
-43 -44 0
1 -44 0
42 44 45 0
-42 -45 0
-44 -45 0
-39 45 46 0
39 -46 0
-45 -46 0
-46 -4 47 0
46 -47 0
4 -47 0
46 4 48 0
-46 -48 0
-4 -48 0
6 -10 49 0
-6 -49 0
10 -49 0
-6 10 50 0
6 -50 0
-10 -50 0
49 50 51 0
-49 -51 0
-50 -51 0
-51 52 53 0
51 -53 0
-52 -53 0
48 -53 54 0
-48 -54 0
53 -54 0
47 54 55 0
-47 -55 0
-54 -55 0
5 -6 56 0
-5 -56 0
6 -56 0
7 -10 57 0
-7 -57 0
10 -57 0
57 -8 58 0
-57 -58 0
8 -58 0
58 59 60 0
-58 -60 0
-59 -60 0
-57 8 61 0
57 -61 0
-8 -61 0
-60 61 62 0
60 -62 0
-61 -62 0
56 62 63 0
-56 -63 0
-62 -63 0
55 63 64 0
-55 -64 0
-63 -64 0
64 7 65 0
-64 -65 0
-7 -65 0
-62 -6 66 0
62 -66 0
6 -66 0
-65 66 67 0
65 -67 0
-66 -67 0
17 -19 68 0
-17 -68 0
19 -68 0
67 68 69 0
-67 -69 0
-68 -69 0
-33 69 70 0
33 -70 0
-69 -70 0
29 -31 71 0
-29 -71 0
31 -71 0
70 71 72 0
-70 -72 0
-71 -72 0
72 -23 73 0
-72 -73 0
23 -73 0
27 74 75 0
-27 -75 0
-74 -75 0
-75 -21 76 0
75 -76 0
21 -76 0
73 76 77 0
-73 -77 0
-76 -77 0
-72 23 78 0
72 -78 0
-23 -78 0
21 -74 79 0
-21 -79 0
74 -79 0
78 79 80 0
-78 -80 0
-79 -80 0
-77 80 81 0
77 -81 0
-80 -81 0
-73 -76 82 0
73 -82 0
76 -82 0
81 82 83 0
-81 -83 0
-82 -83 0
-83 0
